(set-logic QF_UF)
(declare-fun A0 () Bool)
(declare-fun A1 () Bool)
(declare-fun A2 () Bool)
(declare-fun A3 () Bool)
(declare-fun A4 () Bool)
(declare-fun A5 () Bool)
(declare-fun A6 () Bool)
(declare-fun A7 () Bool)
(declare-fun A8 () Bool)
(declare-fun A9 () Bool)
(declare-fun A10 () Bool)
(declare-fun A11 () Bool)
(declare-fun A12 () Bool)
(declare-fun A13 () Bool)
(declare-fun A15 () Bool)
(declare-fun A16 () Bool)
(declare-fun A17 () Bool)
(declare-fun A18 () Bool)
(declare-fun A19 () Bool)
(declare-fun A20 () Bool)
(declare-fun A21 () Bool)
(declare-fun A22 () Bool)
(declare-fun A23 () Bool)
(declare-fun A24 () Bool)
(assert (let ((.def_0 (not A19))) (let ((.def_1 (or A1 .def_0))) (let ((.def_2 (not A13))) (let ((.def_3 (and A19 .def_2))) (let ((.def_4 (not .def_3))) (let ((.def_5 (or .def_4 .def_1))) (let ((.def_6 (not A20))) (let ((.def_7 (and A24 .def_6))) (let ((.def_8 (not A12))) (let ((.def_9 (or A18 .def_8))) (let ((.def_10 (not .def_9))) (let ((.def_11 (or .def_10 .def_7))) (let ((.def_12 (and .def_11 .def_5))) (let ((.def_13 (not .def_12))) (let ((.def_14 (not A24))) (let ((.def_15 (and A22 .def_14))) (let ((.def_16 (not A15))) (let ((.def_17 (or .def_16 A3))) (let ((.def_18 (not .def_17))) (let ((.def_19 (or .def_18 .def_15))) (let ((.def_20 (not A3))) (let ((.def_21 (and .def_20 A10))) (let ((.def_22 (not A8))) (let ((.def_23 (and A23 .def_22))) (let ((.def_24 (and .def_23 .def_21))) (let ((.def_25 (and .def_24 .def_19))) (let ((.def_26 (and .def_25 .def_13))) (let ((.def_27 (or .def_8 A2))) (let ((.def_28 (not .def_27))) (let ((.def_29 (not A0))) (let ((.def_30 (or .def_29 A1))) (let ((.def_31 (and .def_30 .def_28))) (let ((.def_32 (= A17 A20))) (let ((.def_33 (not .def_32))) (let ((.def_34 (= A16 A18))) (let ((.def_35 (and .def_34 .def_33))) (let ((.def_36 (and .def_35 .def_31))) (let ((.def_37 (not A10))) (let ((.def_38 (and A20 .def_37))) (let ((.def_39 (and .def_0 A11))) (let ((.def_40 (not .def_39))) (let ((.def_41 (and .def_40 .def_38))) (let ((.def_42 (= A16 A3))) (let ((.def_43 (and .def_6 .def_29))) (let ((.def_44 (and .def_43 .def_42))) (let ((.def_45 (or .def_44 .def_41))) (let ((.def_46 (not .def_45))) (let ((.def_47 (and .def_46 .def_36))) (let ((.def_48 (or .def_47 .def_26))) (let ((.def_49 (and A21 A18))) (let ((.def_50 (not .def_49))) (let ((.def_51 (not A9))) (let ((.def_52 (and .def_51 A5))) (let ((.def_53 (not .def_52))) (let ((.def_54 (or .def_53 .def_50))) (let ((.def_55 (not .def_54))) (let ((.def_56 (and A2 A4))) (let ((.def_57 (or A13 A4))) (let ((.def_58 (and .def_57 .def_56))) (let ((.def_59 (and .def_58 .def_55))) (let ((.def_60 (not .def_59))) (let ((.def_61 (and A13 A9))) (let ((.def_62 (and A13 A1))) (let ((.def_63 (not .def_62))) (let ((.def_64 (and .def_63 .def_61))) (let ((.def_65 (not A7))) (let ((.def_66 (or .def_65 A2))) (let ((.def_67 (not .def_66))) (let ((.def_68 (not A16))) (let ((.def_69 (not A17))) (let ((.def_70 (or .def_69 .def_68))) (let ((.def_71 (not .def_70))) (let ((.def_72 (and .def_71 .def_67))) (let ((.def_73 (not .def_72))) (let ((.def_74 (or .def_73 .def_64))) (let ((.def_75 (or .def_74 .def_60))) (let ((.def_76 (not A18))) (let ((.def_77 (= .def_76 .def_76))) (let ((.def_78 (not .def_77))) (let ((.def_79 (not A23))) (let ((.def_80 (or A17 .def_79))) (let ((.def_81 (and .def_80 .def_78))) (let ((.def_82 (not .def_81))) (let ((.def_83 (or A18 A1))) (let ((.def_84 (not A2))) (let ((.def_85 (and A5 .def_84))) (let ((.def_86 (or .def_85 .def_83))) (let ((.def_87 (or .def_86 .def_82))) (let ((.def_88 (and .def_68 .def_0))) (let ((.def_89 (and A2 A20))) (let ((.def_90 (not .def_89))) (let ((.def_91 (and .def_90 .def_88))) (let ((.def_92 (not .def_91))) (let ((.def_93 (and .def_14 A6))) (let ((.def_94 (not A21))) (let ((.def_95 (or .def_94 .def_65))) (let ((.def_96 (or .def_95 .def_93))) (let ((.def_97 (or .def_96 .def_92))) (let ((.def_98 (and .def_97 .def_87))) (let ((.def_99 (and .def_98 .def_75))) (let ((.def_100 (not .def_99))) (let ((.def_101 (or .def_100 .def_48))) .def_101)))))))))))))))))))))))))))))))))))))))))))))))))))))))))))))))))))))))))))))))))))))))))))))))))))))))
(check-sat)
